! CCSD(T) cc-pVTZ

%scf MaxIter 250 end

* xyz 0 3
B         0.00000    0.00000    0.80000
B         0.00000    0.00000   -0.80000
*